NAME : LPS-n28-m99
COMMENT : (Lartu-Peter-Santi Plot, instance 10099 out of 39200. 28 customers.)
TYPE : CVRP
DIMENSION : 28
EDGE_WEIGHT_TYPE : EUC_2D
CAPACITY : 77
NODE_COORD_SECTION
 1 24 22
 2 8 9
 3 81 91
 4 91 46
 5 56 46
 6 32 84
 7 29 9
 8 26 52
 9 17 71
 10 92 47
 11 12 6
 12 48 88
 13 74 65
 14 11 86
 15 1 94
 16 18 19
 17 80 70
 18 79 54
 19 12 94
 20 64 4
 21 46 24
 22 79 93
 23 86 99
 24 3 31
 25 20 29
 26 30 79
 27 26 56
 28 58 0
DEMAND_SECTION
1 0
2 73
3 57
4 27
5 9
6 46
7 50
8 59
9 60
10 64
11 67
12 10
13 72
14 33
15 5
16 19
17 38
18 67
19 3
20 62
21 26
22 40
23 73
24 2
25 71
26 3
27 47
28 74
DEPOT_SECTION
 1
 -1
EOF
